File "./GRP119-1/SMT.v", line 6, characters 0-15:
Warning: Interpreting this declaration as if a global declaration prefixed by
"Local", i.e. as a global declaration which shall not be available without
qualification when imported. [local-declaration,vernacular,default]
File "./GRP119-1/SMT.v", line 7, characters 0-22:
Warning: Interpreting this declaration as if a global declaration prefixed by
"Local", i.e. as a global declaration which shall not be available without
qualification when imported. [local-declaration,vernacular,default]
File "./GRP119-1/SMT.v", line 8, characters 0-32:
Warning: Interpreting this declaration as if a global declaration prefixed by
"Local", i.e. as a global declaration which shall not be available without
qualification when imported. [local-declaration,vernacular,default]
File "./GRP119-1/SMT.v", line 17, characters 2-6:
Warning: Discarding the following lemma (unsupported):
(multiply identity identity = identity)
[SMTCoq-discarding-lemma,SMTCoq,default]
File "./GRP119-1/SMT.v", line 17, characters 2-6:
Warning: Discarding the following lemma (unsupported):
(forall X Y Z0 : Z,
 multiply Y
   (multiply (multiply Y (multiply (multiply Y Y) (multiply X Z0)))
      (multiply Z0 (multiply Z0 Z0))) = X)
[SMTCoq-discarding-lemma,SMTCoq,default]
veriT --proof-prune --proof-merge --proof-with-sharing --cnf-definitional --disable-ackermann --input=smtlib2 --proof=/tmp/verit_coqdd99bb.vtlog /tmp/verit_coqdd99bb.smt2 2> /tmp/warnings_veriteaae87.log
veriT dev - the SMT-solver veriT (UFRN/LORIA).
success
success
success
success
success
unknown
success
success
Verit = 0.00006
(set-option :print-success true)
(set-option :produce-assignments true)
(set-option :produce-proofs true)
(set-logic QF_UFLIA)
(declare-fun op_0 () Int)
(declare-fun op_2 () Int)
(declare-fun op_1 (Int Int ) Int)
(assert (not (= (op_1 op_0 (op_1 op_0 (op_1 op_0 op_0))) op_2)))
(check-sat)
(get-model)
File "./GRP119-1/SMT.v", line 17, characters 2-5:
Error:
CVC4 returned sat. Here is the model:

a := 0
multiply := fun BOUND_VARIABLE_297 BOUND_VARIABLE_298 => if BOUND_VARIABLE_297 = 0 then if BOUND_VARIABLE_298 = -1 then 2 else if BOUND_VARIABLE_298 = 0 then -1 else -2 else -2
identity := 1

